service_id,monday,tuesday,wednesday,thursday,friday,saturday,sunday,start_date,end_date
0,1,1,1,1,1,1,1,20210107,20210131
1,0,0,0,0,0,1,0,20210109,20210220
10,1,0,0,1,1,1,1,20210108,20210220
100,1,0,0,0,1,1,1,20210205,20210220
101,0,0,1,0,0,1,0,20210203,20210220
102,0,0,0,0,1,0,1,20210110,20210219
103,1,1,1,1,1,1,1,20210107,20210219
104,0,1,0,0,1,0,1,20210108,20210219
105,1,0,0,0,1,1,1,20210111,20210117
106,0,1,0,1,0,1,0,20210108,20210220
107,1,1,1,1,1,1,1,20210112,20210220
108,1,1,0,0,1,1,1,20210109,20210219
109,1,1,1,1,1,1,1,20210204,20210219
11,1,0,1,0,0,1,0,20210109,20210220
110,0,1,0,0,0,0,0,20210112,20210216
111,0,0,0,1,1,1,0,20210218,20210220
112,0,0,0,0,1,0,1,20210108,20210110
113,1,1,1,1,1,1,1,20210115,20210220
114,1,1,1,1,1,0,0,20210125,20210219
115,1,1,1,1,1,1,1,20210108,20210220
116,1,1,1,1,1,1,1,20210108,20210220
117,0,0,0,0,1,1,1,20210108,20210220
118,1,1,1,1,1,1,1,20210107,20210218
119,1,1,0,0,0,0,0,20210109,20210216
12,0,0,0,0,0,0,1,20210110,20210214
120,0,0,0,1,1,1,0,20210108,20210220
121,0,0,0,1,0,0,1,20210107,20210218
122,1,1,1,1,1,1,1,20210107,20210220
123,0,1,0,1,0,1,0,20210107,20210130
124,0,0,0,0,1,0,1,20210205,20210219
125,0,0,0,0,0,0,1,20210110,20210110
126,1,0,0,1,1,0,1,20210107,20210219
127,1,1,1,1,1,1,1,20210107,20210220
128,1,1,1,1,1,1,1,20210107,20210131
129,0,1,1,1,1,1,1,20210108,20210114
13,0,0,0,0,1,0,0,20210108,20210219
130,0,0,1,0,0,0,1,20210110,20210217
131,0,0,0,1,0,0,0,20210109,20210211
132,1,0,1,0,1,0,1,20210108,20210131
133,0,0,1,1,1,1,1,20210210,20210220
134,1,0,0,0,0,0,0,20210111,20210215
135,1,1,1,1,1,1,1,20210107,20210220
136,1,0,0,0,1,1,1,20210109,20210220
137,1,1,1,1,1,1,1,20210107,20210220
138,1,0,1,1,1,1,1,20210122,20210220
139,0,0,0,0,0,1,0,20210123,20210220
14,1,1,1,1,1,1,1,20210111,20210117
140,0,1,0,0,1,0,0,20210107,20210219
141,1,0,0,0,1,0,0,20210108,20210219
142,1,1,1,1,1,1,1,20210107,20210220
143,1,0,0,0,0,0,0,20210111,20210125
144,1,1,1,1,1,0,0,20210108,20210219
145,0,0,1,0,1,0,1,20210107,20210219
146,0,1,0,0,1,0,0,20210108,20210129
147,0,1,0,1,0,1,0,20210109,20210130
148,0,0,1,0,0,0,0,20210113,20210217
149,1,0,0,1,0,0,1,20210110,20210218
15,0,1,0,1,0,1,0,20210202,20210220
150,1,1,1,1,1,0,0,20210108,20210219
151,1,0,0,0,1,0,0,20210205,20210219
152,0,1,0,1,0,1,0,20210109,20210220
153,1,1,1,1,1,1,1,20210107,20210220
154,1,0,0,0,1,1,0,20210108,20210220
155,0,1,1,1,0,0,0,20210119,20210218
156,0,1,0,0,0,1,0,20210109,20210220
157,1,1,1,1,1,1,0,20210108,20210220
158,1,0,0,1,1,1,1,20210204,20210220
159,1,0,0,1,1,1,1,20210108,20210220
16,1,0,0,1,0,1,0,20210109,20210220
160,0,0,0,0,1,0,0,20210212,20210219
161,0,1,0,1,0,0,1,20210107,20210218
162,0,0,0,0,1,1,1,20210108,20210220
163,0,0,0,0,1,1,1,20210122,20210220
164,1,0,0,0,1,0,0,20210111,20210219
165,1,1,1,1,1,1,1,20210112,20210220
166,1,1,1,1,1,1,1,20210113,20210131
167,1,0,0,0,1,1,1,20210108,20210220
168,0,0,0,0,0,0,1,20210124,20210214
169,1,1,1,1,1,1,1,20210108,20210219
17,1,1,1,1,1,1,1,20210107,20210131
170,1,1,1,1,1,1,1,20210116,20210220
171,1,0,0,0,0,0,1,20210110,20210111
172,0,0,0,1,0,0,1,20210110,20210218
173,1,0,0,0,0,0,0,20210201,20210215
174,0,0,0,1,1,1,1,20210204,20210219
175,0,0,0,0,0,0,1,20210110,20210131
176,1,1,1,1,1,1,1,20210107,20210131
177,1,0,0,1,1,1,1,20210114,20210220
178,1,0,0,1,0,0,1,20210201,20210218
179,1,0,0,0,1,1,1,20210108,20210220
18,1,1,1,1,1,1,1,20210108,20210220
180,1,0,0,0,1,0,0,20210108,20210219
181,0,0,0,1,0,0,1,20210114,20210218
182,1,1,1,1,1,0,0,20210113,20210219
183,0,0,0,1,0,0,0,20210107,20210107
184,1,0,0,0,1,0,0,20210110,20210219
185,1,1,0,0,1,1,1,20210110,20210220
186,0,0,0,0,1,0,1,20210108,20210131
187,1,1,1,1,0,0,1,20210110,20210218
188,0,0,0,0,0,1,0,20210220,20210220
189,1,0,0,1,1,1,1,20210107,20210111
19,1,1,1,1,1,0,1,20210108,20210219
190,0,0,0,1,1,1,1,20210107,20210220
191,0,0,0,1,0,0,1,20210109,20210218
192,1,1,1,1,1,1,1,20210109,20210220
193,0,0,1,0,0,0,0,20210113,20210210
194,0,0,0,1,1,1,1,20210108,20210220
195,0,0,0,0,0,0,1,20210117,20210214
196,1,1,0,0,1,1,1,20210109,20210220
197,1,1,1,1,1,1,1,20210107,20210219
198,1,1,1,1,1,0,0,20210115,20210219
199,1,0,0,0,1,0,0,20210118,20210219
2,1,1,1,1,1,1,1,20210108,20210207
20,1,0,0,0,1,1,1,20210108,20210220
200,0,0,1,1,1,1,1,20210109,20210220
201,0,0,0,1,0,1,0,20210204,20210220
202,0,0,0,0,1,1,0,20210122,20210220
203,1,1,1,1,1,1,1,20210108,20210220
204,1,1,1,1,1,1,1,20210204,20210219
205,0,1,0,0,1,0,0,20210108,20210219
206,0,0,0,1,0,1,0,20210109,20210220
207,0,0,0,1,1,0,1,20210108,20210219
208,0,0,0,1,1,1,1,20210110,20210116
209,1,0,0,1,1,1,1,20210204,20210219
21,1,1,1,1,1,1,1,20210108,20210220
210,0,0,1,0,0,1,0,20210109,20210220
211,1,0,0,0,1,1,1,20210212,20210220
212,1,0,1,0,1,0,0,20210108,20210129
213,0,1,1,1,1,0,0,20210112,20210115
214,1,1,1,1,1,1,1,20210203,20210219
215,0,0,1,0,0,0,1,20210110,20210217
216,1,1,1,1,1,0,1,20210110,20210219
217,0,0,0,0,1,0,0,20210108,20210219
218,1,0,0,1,0,1,0,20210107,20210218
219,1,0,0,0,1,1,0,20210108,20210220
22,1,1,0,0,0,0,0,20210109,20210216
220,0,0,0,1,1,0,0,20210107,20210220
221,1,1,0,0,1,0,1,20210108,20210219
222,1,1,1,1,1,1,1,20210108,20210220
223,1,1,1,1,1,1,0,20210108,20210130
224,1,0,0,0,0,0,0,20210108,20210215
225,0,0,0,0,0,0,1,20210131,20210214
226,1,1,1,1,1,0,1,20210125,20210219
227,1,1,0,0,1,1,1,20210201,20210220
228,0,0,0,1,0,1,0,20210107,20210109
229,1,1,1,1,1,1,1,20210109,20210220
23,1,0,0,0,1,0,1,20210108,20210219
230,1,1,0,0,0,0,0,20210109,20210216
231,0,0,0,1,0,0,1,20210107,20210110
232,1,0,0,1,1,1,1,20210110,20210220
233,1,1,1,1,1,1,1,20210109,20210220
234,1,1,1,1,1,1,1,20210107,20210219
235,0,0,0,0,0,1,0,20210111,20210213
236,0,1,0,1,0,1,0,20210107,20210220
237,1,1,1,1,0,0,0,20210111,20210218
238,1,1,1,1,1,1,1,20210108,20210117
239,1,0,0,0,0,0,0,20210109,20210215
24,1,0,0,1,1,0,1,20210110,20210219
240,1,1,1,1,1,1,1,20210108,20210220
241,0,1,1,1,1,1,1,20210204,20210220
242,0,0,1,1,0,0,1,20210107,20210218
243,1,1,1,1,1,1,1,20210107,20210213
244,0,0,1,0,0,1,0,20210113,20210217
245,1,1,1,1,1,1,1,20210108,20210220
246,0,0,0,0,1,0,0,20210106,20210219
247,0,0,0,1,1,1,1,20210107,20210220
248,1,1,0,0,0,0,0,20210109,20210215
249,1,0,0,1,1,1,1,20210201,20210219
25,1,1,1,1,0,1,0,20210109,20210220
250,1,1,1,1,1,1,1,20210109,20210220
251,0,0,1,0,0,1,0,20210109,20210130
252,1,1,0,1,1,1,1,20210107,20210112
253,0,0,0,0,1,1,1,20210109,20210220
254,1,1,1,1,1,1,1,20210108,20210220
255,0,0,1,0,0,1,0,20210106,20210220
256,0,0,0,0,1,0,0,20210108,20210115
257,1,1,1,1,1,1,1,20210108,20210131
258,0,0,0,0,1,0,0,20210122,20210122
259,1,0,0,0,0,1,0,20210109,20210220
26,1,1,1,1,1,1,1,20210107,20210220
260,1,0,1,0,1,0,0,20210111,20210219
261,1,0,0,0,0,1,1,20210109,20210111
262,1,0,0,0,1,1,1,20210108,20210220
263,0,0,1,1,1,1,1,20210107,20210220
264,0,0,0,0,0,0,1,20210124,20210124
265,0,0,0,0,1,1,1,20210108,20210220
266,1,0,0,1,1,1,1,20210108,20210220
267,0,0,0,0,0,1,0,20210213,20210220
268,1,0,0,1,1,0,1,20210107,20210219
269,0,0,0,1,0,1,0,20210107,20210220
27,1,1,1,1,1,1,1,20210109,20210220
270,1,0,0,0,0,1,0,20210201,20210220
271,0,1,0,1,0,0,1,20210108,20210218
272,0,0,0,0,1,0,0,20210108,20210205
273,1,1,1,0,1,0,1,20210108,20210219
274,1,1,1,1,1,1,0,20210111,20210220
275,0,0,0,1,0,1,0,20210109,20210220
276,0,1,1,1,0,0,0,20210112,20210218
277,0,0,0,0,1,0,0,20210115,20210212
278,1,0,0,1,1,1,1,20210109,20210220
279,0,0,0,1,0,0,1,20210108,20210218
28,1,1,1,1,1,1,1,20210107,20210220
280,0,0,0,0,1,1,1,20210205,20210220
281,0,0,1,1,1,1,1,20210107,20210220
282,0,0,0,1,1,1,0,20210108,20210219
283,1,1,0,0,0,1,0,20210109,20210220
284,0,0,0,1,0,0,1,20210107,20210218
285,1,1,1,1,1,1,1,20210110,20210220
286,1,1,1,1,1,1,1,20210108,20210115
287,1,1,1,1,1,1,1,20210115,20210219
288,0,0,1,0,0,1,0,20210109,20210220
289,1,0,0,1,0,1,0,20210108,20210213
29,0,0,0,0,1,0,0,20210108,20210108
290,0,0,0,0,0,1,0,20210109,20210116
291,0,0,0,1,0,1,1,20210107,20210218
292,1,0,0,1,1,1,1,20210107,20210220
293,0,0,1,1,0,1,1,20210107,20210220
294,1,1,1,1,0,0,0,20210204,20210218
295,1,1,0,0,1,1,0,20210108,20210220
296,1,1,1,1,1,1,1,20210109,20210220
297,1,0,0,0,1,1,1,20210110,20210220
298,1,0,0,0,0,1,1,20210110,20210220
299,0,0,1,0,1,0,1,20210110,20210219
3,1,1,1,1,1,1,1,20210107,20210220
30,0,0,0,0,0,1,1,20210110,20210220
300,1,1,1,1,1,1,1,20210201,20210219
301,1,0,0,1,1,1,1,20210211,20210220
302,1,1,1,1,1,1,0,20210108,20210220
303,1,0,0,0,1,1,1,20210108,20210201
304,0,0,0,0,1,0,0,20210115,20210219
305,1,0,0,0,0,0,0,20210208,20210215
306,0,0,0,1,1,0,0,20210107,20210108
307,0,0,0,1,1,1,1,20210108,20210220
308,1,0,0,1,1,1,1,20210108,20210219
309,1,1,1,1,1,1,1,20210108,20210220
31,0,0,0,0,0,0,1,20210214,20210214
32,1,1,1,1,1,1,1,20210108,20210220
33,0,1,0,1,0,1,0,20210107,20210220
34,1,0,0,0,1,0,1,20210108,20210219
35,1,0,0,1,1,0,0,20210108,20210219
36,0,1,0,1,1,0,1,20210107,20210219
37,1,1,1,1,1,1,1,20210201,20210220
38,1,1,1,1,1,0,0,20210108,20210219
39,1,1,1,1,1,1,1,20210107,20210220
4,0,0,0,0,0,0,1,20210207,20210214
40,0,0,0,0,0,0,1,20210108,20210214
41,1,0,0,0,1,1,1,20210108,20210111
42,1,0,0,1,0,1,0,20210108,20210220
43,0,0,0,1,1,1,1,20210204,20210220
44,1,0,0,0,1,0,0,20210108,20210111
45,0,0,1,0,0,1,0,20210109,20210220
46,1,1,1,1,1,1,1,20210204,20210220
47,1,0,0,0,1,0,0,20210115,20210219
48,1,1,0,1,1,0,1,20210108,20210219
49,1,1,1,1,1,1,1,20210108,20210131
5,1,0,0,0,0,0,0,20210111,20210111
50,1,0,1,0,1,0,0,20210108,20210219
51,0,0,1,1,1,1,1,20210109,20210220
52,1,1,1,1,1,1,1,20210107,20210220
53,1,0,1,1,1,1,1,20210109,20210219
54,1,1,1,1,1,1,1,20210111,20210220
55,1,1,1,1,1,1,1,20210203,20210220
56,1,1,1,1,1,1,1,20210108,20210220
57,1,1,1,1,1,1,0,20210108,20210220
58,0,0,0,1,1,1,1,20210211,20210220
59,1,0,0,1,1,0,1,20210108,20210219
6,0,0,0,0,1,1,1,20210108,20210110
60,1,1,1,1,1,0,0,20210108,20210205
61,0,0,1,0,0,0,0,20210106,20210217
62,1,0,0,1,1,1,1,20210118,20210220
63,0,0,0,0,1,0,1,20210108,20210219
64,1,0,0,0,0,1,0,20210109,20210220
65,1,0,0,1,1,1,1,20210109,20210220
66,0,0,0,0,1,0,0,20210122,20210219
67,1,0,0,0,1,0,0,20210108,20210201
68,1,1,1,1,1,1,1,20210108,20210220
69,0,0,0,1,1,1,1,20210108,20210220
7,1,1,1,1,1,1,0,20210108,20210220
70,0,0,0,1,1,1,1,20210107,20210220
71,1,1,1,1,0,1,1,20210109,20210220
72,1,1,1,1,1,0,1,20210108,20210219
73,0,0,0,0,0,0,1,20210110,20210117
74,0,1,0,0,0,1,0,20210109,20210220
75,1,0,0,0,0,0,0,20210109,20210215
76,0,1,1,1,1,1,1,20210108,20210220
77,0,0,0,1,0,0,0,20210107,20210218
78,1,1,1,1,1,0,0,20210118,20210219
79,0,0,1,1,1,1,1,20210108,20210220
8,0,0,1,0,0,1,0,20210109,20210217
80,0,0,1,1,0,1,0,20210109,20210220
81,0,0,0,0,1,1,0,20210108,20210220
82,0,0,0,0,0,1,0,20210109,20210109
83,1,1,1,1,1,1,1,20210121,20210220
84,0,0,0,0,1,0,1,20210110,20210219
85,0,1,0,0,1,0,1,20210109,20210219
86,1,0,0,1,0,0,0,20210111,20210218
87,0,0,0,0,1,1,0,20210219,20210220
88,0,0,0,0,0,1,1,20210109,20210220
89,0,0,0,0,1,0,1,20210108,20210220
9,0,0,0,0,0,0,1,20210110,20210207
90,0,1,1,0,1,0,1,20210108,20210219
91,0,0,0,1,0,0,0,20210107,20210218
92,0,0,0,1,1,1,0,20210107,20210109
93,1,1,1,1,0,0,0,20210111,20210204
94,0,0,0,1,1,1,1,20210107,20210110
95,1,1,1,1,1,1,1,20210112,20210219
96,1,1,1,1,1,1,1,20210109,20210220
97,0,0,0,0,1,0,0,20210108,20210219
98,1,1,1,1,1,1,1,20210111,20210220
99,1,1,1,1,1,1,1,20210122,20210220
